Route #1: 23 22 24 28 27 26 25 21 91 20 82 19 130 18 17 71 66 118 46
Route #2: 117 131 116 115 119 65 89 90 92 29 30 31 59 60 61
Route #3: 127 128 129 113 114 84 86 87 14 15 13 16 54 55 50 51 52 62 49 48 34 32 1
Route #4: 47 134 75 103 88 85 83 120 121 126 112
Route #5: 108 109 125 111 81 132 64 77 76 53 102 101 104 56 57 74 73
Route #6: 72 58 105 100 97 96 38 39 37 36 98 99 35 79 63 78 67 133 110 122 123 124 107 106
Route #7: 33 80 68 95 40 43 45 94 93
Route #8: 70 69 3 41 44 42 2 4 5 6 7 8 9 10 11 12
Cost 2211
